# Solution for model micodag
# Objective value = 1.9947084761893045e+01
s_0_1 0
s_1_0 0
s_0_2 0
s_2_0 3.0049002434502814e-01
s_1_2 0
s_2_1 2.7104656880007116e-01
s_1_3 0
s_3_1 6.7029845414071065e-01
s_1_9 0
s_9_1 0
s_1_12 0
s_12_1 1.1563421431800425e-01
s_1_13 0
s_13_1 8.8243548513301739e-02
s_2_3 0
s_3_2 2.0725121420949044e-01
s_2_4 0
s_4_2 4.9304101316574567e-01
s_2_6 0
s_6_2 0
s_2_8 0
s_8_2 2.2325319692901591e-01
s_3_4 0
s_4_3 4.6780958043883860e+00
s_3_6 0
s_6_3 0
s_3_7 0
s_7_3 0
s_3_8 0
s_8_3 4.6780958043883860e+00
s_3_9 0
s_9_3 4.6780958043883860e+00
s_3_12 0
s_12_3 4.6780958043883860e+00
s_3_13 9.0262259232911646e-02
s_13_3 0
s_4_5 0
s_5_4 0
s_4_6 0
s_6_4 3.2172275809586015e-01
s_4_7 0
s_7_4 0
s_4_8 0
s_8_4 0
s_4_11 0
s_11_4 5.1579978312736419e-01
s_5_6 0
s_6_5 5.3010348821337328e-01
s_5_7 0
s_7_5 6.0732890417015639e-01
s_5_14 0
s_14_5 3.6802252471014985e-01
s_6_8 0
s_8_6 4.4700581354161084e-01
s_7_8 0
s_8_7 0
s_7_9 0
s_9_7 3.2960374800305114e-01
s_7_10 0
s_10_7 2.6274528103249484e-01
s_7_11 0
s_11_7 3.8836036845134636e-01
s_8_11 0
s_11_8 2.5281684888006950e-01
s_9_12 0
s_12_9 3.0397926717567092e-01
s_12_13 1.4310573590819420e-01
s_13_12 0
s_0_0 1.1114260030967769e+00
s_1_1 6.8355861441712662e-01
s_2_2 7.4280426708746639e-01
s_3_3 4.6780958043883860e+00
s_4_4 1.0319770900143896e+00
s_5_5 6.8068712717961244e-01
s_6_6 9.1015501302262480e-01
s_7_7 8.8790446012790936e-01
s_8_8 6.6165426423490814e-01
s_9_9 9.9218251385017453e-01
s_10_10 7.4970639727943311e-01
s_11_11 7.1247041603119765e-01
s_12_12 1.2004207582642854e+00
s_13_13 3.2887430173783194e-01
s_14_14 9.6368191510820367e-01
Gamma_0_0 1.0542419091919926e+00
Gamma_0_1 0
Gamma_0_2 0
Gamma_0_3 0
Gamma_0_4 0
Gamma_0_5 0
Gamma_0_6 0
Gamma_0_7 0
Gamma_0_8 0
Gamma_0_9 0
Gamma_0_10 0
Gamma_0_11 0
Gamma_0_12 0
Gamma_0_13 0
Gamma_0_14 0
Gamma_1_0 0
Gamma_1_1 8.2677603643134678e-01
Gamma_1_2 0
Gamma_1_3 0
Gamma_1_4 0
Gamma_1_5 0
Gamma_1_6 0
Gamma_1_7 0
Gamma_1_8 0
Gamma_1_9 0
Gamma_1_10 0
Gamma_1_11 0
Gamma_1_12 0
Gamma_1_13 0
Gamma_1_14 0
Gamma_2_0 -5.4816970396495746e-01
Gamma_2_1 -5.2062132956696316e-01
Gamma_2_2 8.6186093256828111e-01
Gamma_2_3 0
Gamma_2_4 0
Gamma_2_5 0
Gamma_2_6 0
Gamma_2_7 0
Gamma_2_8 0
Gamma_2_9 0
Gamma_2_10 0
Gamma_2_11 0
Gamma_2_12 0
Gamma_2_13 0
Gamma_2_14 0
Gamma_3_0 0
Gamma_3_1 8.1871756677178464e-01
Gamma_3_2 4.5524851917331005e-01
Gamma_3_3 9.2443883118259129e-01
Gamma_3_4 0
Gamma_3_5 0
Gamma_3_6 0
Gamma_3_7 0
Gamma_3_8 0
Gamma_3_9 0
Gamma_3_10 0
Gamma_3_11 0
Gamma_3_12 0
Gamma_3_13 3.0043678075913482e-01
Gamma_3_14 0
Gamma_4_0 0
Gamma_4_1 0
Gamma_4_2 7.0216879250344544e-01
Gamma_4_3 8.5382110253479659e-01
Gamma_4_4 1.0158627318759113e+00
Gamma_4_5 0
Gamma_4_6 0
Gamma_4_7 0
Gamma_4_8 0
Gamma_4_9 0
Gamma_4_10 0
Gamma_4_11 0
Gamma_4_12 0
Gamma_4_13 0
Gamma_4_14 0
Gamma_5_0 0
Gamma_5_1 0
Gamma_5_2 0
Gamma_5_3 0
Gamma_5_4 0
Gamma_5_5 8.2503765197693457e-01
Gamma_5_6 0
Gamma_5_7 0
Gamma_5_8 0
Gamma_5_9 0
Gamma_5_10 0
Gamma_5_11 0
Gamma_5_12 0
Gamma_5_13 0
Gamma_5_14 0
Gamma_6_0 0
Gamma_6_1 0
Gamma_6_2 0
Gamma_6_3 0
Gamma_6_4 -5.6720609842971625e-01
Gamma_6_5 7.2808206145555721e-01
Gamma_6_6 9.5402044685773146e-01
Gamma_6_7 0
Gamma_6_8 0
Gamma_6_9 0
Gamma_6_10 0
Gamma_6_11 0
Gamma_6_12 0
Gamma_6_13 0
Gamma_6_14 0
Gamma_7_0 0
Gamma_7_1 0
Gamma_7_2 0
Gamma_7_3 0
Gamma_7_4 0
Gamma_7_5 -7.7931309765084611e-01
Gamma_7_6 0
Gamma_7_7 9.4228682476616976e-01
Gamma_7_8 0
Gamma_7_9 0
Gamma_7_10 0
Gamma_7_11 0
Gamma_7_12 0
Gamma_7_13 0
Gamma_7_14 0
Gamma_8_0 0
Gamma_8_1 0
Gamma_8_2 4.7249676922600981e-01
Gamma_8_3 6.5273931129962826e-01
Gamma_8_4 0
Gamma_8_5 0
Gamma_8_6 -6.6858493367829608e-01
Gamma_8_7 0
Gamma_8_8 8.1342133254231053e-01
Gamma_8_9 0
Gamma_8_10 0
Gamma_8_11 0
Gamma_8_12 0
Gamma_8_13 0
Gamma_8_14 0
Gamma_9_0 0
Gamma_9_1 0
Gamma_9_2 0
Gamma_9_3 5.9553447507207669e-01
Gamma_9_4 0
Gamma_9_5 0
Gamma_9_6 0
Gamma_9_7 -5.7411126796384337e-01
Gamma_9_8 0
Gamma_9_9 9.9608358778276007e-01
Gamma_9_10 0
Gamma_9_11 0
Gamma_9_12 0
Gamma_9_13 0
Gamma_9_14 0
Gamma_10_0 0
Gamma_10_1 0
Gamma_10_2 0
Gamma_10_3 0
Gamma_10_4 0
Gamma_10_5 0
Gamma_10_6 0
Gamma_10_7 5.1258685218457967e-01
Gamma_10_8 0
Gamma_10_9 0
Gamma_10_10 8.6585587558174726e-01
Gamma_10_11 0
Gamma_10_12 0
Gamma_10_13 0
Gamma_10_14 0
Gamma_11_0 0
Gamma_11_1 0
Gamma_11_2 0
Gamma_11_3 0
Gamma_11_4 -7.1819202385390313e-01
Gamma_11_5 0
Gamma_11_6 0
Gamma_11_7 6.2318566130114672e-01
Gamma_11_8 0.502808958631477
Gamma_11_9 0
Gamma_11_10 0
Gamma_11_11 8.4407962659407809e-01
Gamma_11_12 0
Gamma_11_13 0
Gamma_11_14 0
Gamma_12_0 0
Gamma_12_1 -3.4005031145112180e-01
Gamma_12_2 0
Gamma_12_3 3.5065968867773234e-01
Gamma_12_4 0
Gamma_12_5 0
Gamma_12_6 0
Gamma_12_7 0
Gamma_12_8 0
Gamma_12_9 -5.5134314829847308e-01
Gamma_12_10 0
Gamma_12_11 0
Gamma_12_12 1.0956371471724962e+00
Gamma_12_13 3.7829318776339971e-01
Gamma_12_14 0
Gamma_13_0 0
Gamma_13_1 2.9705815678634845e-01
Gamma_13_2 0
Gamma_13_3 0
Gamma_13_4 0
Gamma_13_5 0
Gamma_13_6 0
Gamma_13_7 0
Gamma_13_8 0
Gamma_13_9 0
Gamma_13_10 0
Gamma_13_11 0
Gamma_13_12 0
Gamma_13_13 5.7347563308115579e-01
Gamma_13_14 0
Gamma_14_0 0
Gamma_14_1 0
Gamma_14_2 0
Gamma_14_3 0
Gamma_14_4 0
Gamma_14_5 6.0664860068259518e-01
Gamma_14_6 0
Gamma_14_7 0
Gamma_14_8 0
Gamma_14_9 0
Gamma_14_10 0
Gamma_14_11 0
Gamma_14_12 0
Gamma_14_13 0
Gamma_14_14 9.8167301842731913e-01
psi_0 6
psi_1 6
psi_2 5
psi_3 4
psi_4 3
psi_5 3
psi_6 2
psi_7 2
psi_8 1
psi_9 1
psi_10 0
psi_11 0
psi_12 0
psi_13 5
psi_14 0
g_0_0 0
g_0_1 0
g_0_2 0
g_0_3 0
g_0_4 0
g_0_5 0
g_0_6 0
g_0_7 0
g_0_8 0
g_0_9 0
g_0_10 0
g_0_11 0
g_0_12 0
g_0_13 0
g_0_14 0
g_1_0 0
g_1_1 0
g_1_2 0
g_1_3 0
g_1_4 0
g_1_5 0
g_1_6 0
g_1_7 0
g_1_8 0
g_1_9 0
g_1_10 0
g_1_11 0
g_1_12 0
g_1_13 0
g_1_14 0
g_2_0 1
g_2_1 1
g_2_2 0
g_2_3 0
g_2_4 0
g_2_5 0
g_2_6 0
g_2_7 0
g_2_8 0
g_2_9 0
g_2_10 0
g_2_11 0
g_2_12 0
g_2_13 0
g_2_14 0
g_3_0 0
g_3_1 1
g_3_2 1
g_3_3 0
g_3_4 0
g_3_5 0
g_3_6 0
g_3_7 0
g_3_8 0
g_3_9 0
g_3_10 0
g_3_11 0
g_3_12 0
g_3_13 1
g_3_14 0
g_4_0 0
g_4_1 0
g_4_2 1
g_4_3 1
g_4_4 0
g_4_5 0
g_4_6 0
g_4_7 0
g_4_8 0
g_4_9 0
g_4_10 0
g_4_11 0
g_4_12 0
g_4_13 0
g_4_14 0
g_5_0 0
g_5_1 0
g_5_2 0
g_5_3 0
g_5_4 0
g_5_5 0
g_5_6 0
g_5_7 0
g_5_8 0
g_5_9 0
g_5_10 0
g_5_11 0
g_5_12 0
g_5_13 0
g_5_14 0
g_6_0 0
g_6_1 0
g_6_2 0
g_6_3 0
g_6_4 1
g_6_5 1
g_6_6 0
g_6_7 0
g_6_8 0
g_6_9 0
g_6_10 0
g_6_11 0
g_6_12 0
g_6_13 0
g_6_14 0
g_7_0 0
g_7_1 0
g_7_2 0
g_7_3 0
g_7_4 0
g_7_5 1
g_7_6 0
g_7_7 0
g_7_8 0
g_7_9 0
g_7_10 0
g_7_11 0
g_7_12 0
g_7_13 0
g_7_14 0
g_8_0 0
g_8_1 0
g_8_2 1
g_8_3 1
g_8_4 0
g_8_5 0
g_8_6 1
g_8_7 0
g_8_8 0
g_8_9 0
g_8_10 0
g_8_11 0
g_8_12 0
g_8_13 0
g_8_14 0
g_9_0 0
g_9_1 0
g_9_2 0
g_9_3 1
g_9_4 0
g_9_5 0
g_9_6 0
g_9_7 1
g_9_8 0
g_9_9 0
g_9_10 0
g_9_11 0
g_9_12 0
g_9_13 0
g_9_14 0
g_10_0 0
g_10_1 0
g_10_2 0
g_10_3 0
g_10_4 0
g_10_5 0
g_10_6 0
g_10_7 1
g_10_8 0
g_10_9 0
g_10_10 0
g_10_11 0
g_10_12 0
g_10_13 0
g_10_14 0
g_11_0 0
g_11_1 0
g_11_2 0
g_11_3 0
g_11_4 1
g_11_5 0
g_11_6 0
g_11_7 1
g_11_8 1
g_11_9 0
g_11_10 0
g_11_11 0
g_11_12 0
g_11_13 0
g_11_14 0
g_12_0 0
g_12_1 1
g_12_2 0
g_12_3 1
g_12_4 0
g_12_5 0
g_12_6 0
g_12_7 0
g_12_8 0
g_12_9 1
g_12_10 0
g_12_11 0
g_12_12 0
g_12_13 1
g_12_14 0
g_13_0 0
g_13_1 1
g_13_2 0
g_13_3 0
g_13_4 0
g_13_5 0
g_13_6 0
g_13_7 0
g_13_8 0
g_13_9 0
g_13_10 0
g_13_11 0
g_13_12 0
g_13_13 0
g_13_14 0
g_14_0 0
g_14_1 0
g_14_2 0
g_14_3 0
g_14_4 0
g_14_5 1
g_14_6 0
g_14_7 0
g_14_8 0
g_14_9 0
g_14_10 0
g_14_11 0
g_14_12 0
g_14_13 0
g_14_14 0
T_0 -1.0564387829394661e-01
T_1 3.8044287021536149e-01
T_2 2.9732270492198154e-01
T_3 1.5713678911919260e-01
T_4 -3.1476467214503145e-02
T_5 3.8465250985790078e-01
T_6 9.4140349997218209e-02
T_7 1.1889113172422583e-01
T_8 4.1301211893399170e-01
T_9 7.8482028845030527e-03
T_10 2.8807361939037435e-01
T_11 3.3901688906108518e-01
T_12 -1.8267212722386716e-01
T_13 1.1120796628080285e+00
T_14 3.6994002402252590e-02
